c smth
s vc 199 142
197
195
194
193
192
190
189
188
187
186
185
184
183
181
180
179
177
176
175
174
172
171
169
168
167
166
165
163
162
161
160
159
158
157
156
155
149
148
147
145
144
142
141
139
138
133
132
130
129
127
124
123
120
119
118
117
116
115
114
113
111
110
108
106
105
104
102
101
100
98
97
96
95
94
92
90
89
87
86
85
84
83
82
81
80
78
77
76
75
74
72
71
69
67
66
63
62
60
59
58
57
55
53
52
51
50
48
47
46
45
44
42
41
40
39
37
35
33
31
30
28
27
26
24
23
22
21
19
18
16
15
14
13
12
10
9
8
7
6
3
2
1